proyfinal/src/viki/013/experimentInOfficeAgust.take6.output/76f6079c-ceea-473c-bbea-97ac0e1ca43a.als.dat
{'cnf.clauses': '118081',
 'cnf.totvars': '69608',
 'conflict literals': '2',
 'conflicts': '3',
 'decisions': '3319',
 'memused.mb': '14.27',
 'outcome': 'UNSAT',
 'propagations': '23958',
 'restarts': '1',
 'solver.msecs': 29,
 'task.msecs': 72}
