proyfinal/src/viki/013/experimentInOfficeAgust.take6.output/76f6079c-ceea-473c-bbea-97ac0e1ca43a.als.out
Reading from standard input... Use '--help' for help.
============================[ Problem Statistics ]=============================
|                                                                             |
|  Number of variables:         69608                                         |
|  Number of clauses:          118081                                         |
|  Parse time:                   0.02 s                                       |
|                                                                             |
============================[ Search Statistics ]==============================
| Conflicts |          ORIGINAL         |          LEARNT          | Progress |
|           |    Vars  Clauses Literals |    Limit  Clauses Lit/Cl |          |
===============================================================================
===============================================================================
restarts              : 1
conflicts             : 3              (102 /sec)
decisions             : 3319           (0.00 % random) (113315 /sec)
propagations          : 23958          (817958 /sec)
conflict literals     : 2              (0.00 % deleted)
Memory used           : 14.27 MB
CPU time              : 0.02929 s

UNSATISFIABLE
